c *********************************
c * Circuit generated by BenCGen
c *
c * CarryLookaheadBlock_24_24_24_InOutT
c *
c * Ports with 1 gate(s): 2
c * Ports with 2 gate(s): 103
c * Ports with 3 gate(s): 24
c * Ports with 4 gate(s): 18
c * Ports with 5 gate(s): 12
c * Total gates: 159
c *********************************
p cnf 207 619
1 75 0
-1 -75 0
1 -74 0
75 -74 0
-1 -75 74 0
1 25 -76 0
-1 25 76 0
1 -25 76 0
-1 -25 -76 0
1 -100 0
25 -100 0
-1 -25 100 0
2 26 -77 0
-2 26 77 0
2 -26 77 0
-2 -26 -77 0
2 -101 0
26 -101 0
-2 -26 101 0
3 27 -78 0
-3 27 78 0
3 -27 78 0
-3 -27 -78 0
3 -102 0
27 -102 0
-3 -27 102 0
4 28 -79 0
-4 28 79 0
4 -28 79 0
-4 -28 -79 0
4 -103 0
28 -103 0
-4 -28 103 0
5 29 -80 0
-5 29 80 0
5 -29 80 0
-5 -29 -80 0
5 -104 0
29 -104 0
-5 -29 104 0
6 30 -81 0
-6 30 81 0
6 -30 81 0
-6 -30 -81 0
6 -105 0
30 -105 0
-6 -30 105 0
7 31 -82 0
-7 31 82 0
7 -31 82 0
-7 -31 -82 0
7 -106 0
31 -106 0
-7 -31 106 0
8 32 -83 0
-8 32 83 0
8 -32 83 0
-8 -32 -83 0
8 -107 0
32 -107 0
-8 -32 107 0
9 33 -84 0
-9 33 84 0
9 -33 84 0
-9 -33 -84 0
9 -108 0
33 -108 0
-9 -33 108 0
10 34 -85 0
-10 34 85 0
10 -34 85 0
-10 -34 -85 0
10 -109 0
34 -109 0
-10 -34 109 0
11 35 -86 0
-11 35 86 0
11 -35 86 0
-11 -35 -86 0
11 -110 0
35 -110 0
-11 -35 110 0
12 36 -87 0
-12 36 87 0
12 -36 87 0
-12 -36 -87 0
12 -111 0
36 -111 0
-12 -36 111 0
13 37 -88 0
-13 37 88 0
13 -37 88 0
-13 -37 -88 0
13 -112 0
37 -112 0
-13 -37 112 0
14 38 -89 0
-14 38 89 0
14 -38 89 0
-14 -38 -89 0
14 -113 0
38 -113 0
-14 -38 113 0
15 39 -90 0
-15 39 90 0
15 -39 90 0
-15 -39 -90 0
15 -114 0
39 -114 0
-15 -39 114 0
16 40 -91 0
-16 40 91 0
16 -40 91 0
-16 -40 -91 0
16 -115 0
40 -115 0
-16 -40 115 0
17 41 -92 0
-17 41 92 0
17 -41 92 0
-17 -41 -92 0
17 -116 0
41 -116 0
-17 -41 116 0
18 42 -93 0
-18 42 93 0
18 -42 93 0
-18 -42 -93 0
18 -117 0
42 -117 0
-18 -42 117 0
19 43 -94 0
-19 43 94 0
19 -43 94 0
-19 -43 -94 0
19 -118 0
43 -118 0
-19 -43 118 0
20 44 -95 0
-20 44 95 0
20 -44 95 0
-20 -44 -95 0
20 -119 0
44 -119 0
-20 -44 119 0
21 45 -96 0
-21 45 96 0
21 -45 96 0
-21 -45 -96 0
21 -120 0
45 -120 0
-21 -45 120 0
22 46 -97 0
-22 46 97 0
22 -46 97 0
-22 -46 -97 0
22 -121 0
46 -121 0
-22 -46 121 0
23 47 -98 0
-23 47 98 0
23 -47 98 0
-23 -47 -98 0
23 -122 0
47 -122 0
-23 -47 122 0
24 48 -99 0
-24 48 99 0
24 -48 99 0
-24 -48 -99 0
24 -123 0
48 -123 0
-24 -48 123 0
74 -148 0
76 -148 0
-74 -76 148 0
74 -149 0
76 -149 0
77 -149 0
-74 -76 -77 149 0
100 -150 0
77 -150 0
-100 -77 150 0
74 -151 0
76 -151 0
77 -151 0
78 -151 0
-74 -76 -77 -78 151 0
100 -152 0
77 -152 0
78 -152 0
-100 -77 -78 152 0
101 -153 0
78 -153 0
-101 -78 153 0
74 -154 0
76 -154 0
77 -154 0
78 -154 0
79 -154 0
-74 -76 -77 -78 -79 154 0
100 -155 0
77 -155 0
78 -155 0
79 -155 0
-100 -77 -78 -79 155 0
101 -156 0
78 -156 0
79 -156 0
-101 -78 -79 156 0
102 -157 0
79 -157 0
-102 -79 157 0
-100 124 0
-148 124 0
100 148 -124 0
-101 125 0
-149 125 0
-150 125 0
101 149 150 -125 0
-102 126 0
-151 126 0
-152 126 0
-153 126 0
102 151 152 153 -126 0
-103 127 0
-154 127 0
-155 127 0
-156 127 0
-157 127 0
103 154 155 156 157 -127 0
127 -158 0
80 -158 0
-127 -80 158 0
127 -159 0
80 -159 0
81 -159 0
-127 -80 -81 159 0
104 -160 0
81 -160 0
-104 -81 160 0
127 -161 0
80 -161 0
81 -161 0
82 -161 0
-127 -80 -81 -82 161 0
104 -162 0
81 -162 0
82 -162 0
-104 -81 -82 162 0
105 -163 0
82 -163 0
-105 -82 163 0
127 -164 0
80 -164 0
81 -164 0
82 -164 0
83 -164 0
-127 -80 -81 -82 -83 164 0
104 -165 0
81 -165 0
82 -165 0
83 -165 0
-104 -81 -82 -83 165 0
105 -166 0
82 -166 0
83 -166 0
-105 -82 -83 166 0
106 -167 0
83 -167 0
-106 -83 167 0
-104 128 0
-158 128 0
104 158 -128 0
-105 129 0
-159 129 0
-160 129 0
105 159 160 -129 0
-106 130 0
-161 130 0
-162 130 0
-163 130 0
106 161 162 163 -130 0
-107 131 0
-164 131 0
-165 131 0
-166 131 0
-167 131 0
107 164 165 166 167 -131 0
131 -168 0
84 -168 0
-131 -84 168 0
131 -169 0
84 -169 0
85 -169 0
-131 -84 -85 169 0
108 -170 0
85 -170 0
-108 -85 170 0
131 -171 0
84 -171 0
85 -171 0
86 -171 0
-131 -84 -85 -86 171 0
108 -172 0
85 -172 0
86 -172 0
-108 -85 -86 172 0
109 -173 0
86 -173 0
-109 -86 173 0
131 -174 0
84 -174 0
85 -174 0
86 -174 0
87 -174 0
-131 -84 -85 -86 -87 174 0
108 -175 0
85 -175 0
86 -175 0
87 -175 0
-108 -85 -86 -87 175 0
109 -176 0
86 -176 0
87 -176 0
-109 -86 -87 176 0
110 -177 0
87 -177 0
-110 -87 177 0
-108 132 0
-168 132 0
108 168 -132 0
-109 133 0
-169 133 0
-170 133 0
109 169 170 -133 0
-110 134 0
-171 134 0
-172 134 0
-173 134 0
110 171 172 173 -134 0
-111 135 0
-174 135 0
-175 135 0
-176 135 0
-177 135 0
111 174 175 176 177 -135 0
135 -178 0
88 -178 0
-135 -88 178 0
135 -179 0
88 -179 0
89 -179 0
-135 -88 -89 179 0
112 -180 0
89 -180 0
-112 -89 180 0
135 -181 0
88 -181 0
89 -181 0
90 -181 0
-135 -88 -89 -90 181 0
112 -182 0
89 -182 0
90 -182 0
-112 -89 -90 182 0
113 -183 0
90 -183 0
-113 -90 183 0
135 -184 0
88 -184 0
89 -184 0
90 -184 0
91 -184 0
-135 -88 -89 -90 -91 184 0
112 -185 0
89 -185 0
90 -185 0
91 -185 0
-112 -89 -90 -91 185 0
113 -186 0
90 -186 0
91 -186 0
-113 -90 -91 186 0
114 -187 0
91 -187 0
-114 -91 187 0
-112 136 0
-178 136 0
112 178 -136 0
-113 137 0
-179 137 0
-180 137 0
113 179 180 -137 0
-114 138 0
-181 138 0
-182 138 0
-183 138 0
114 181 182 183 -138 0
-115 139 0
-184 139 0
-185 139 0
-186 139 0
-187 139 0
115 184 185 186 187 -139 0
139 -188 0
92 -188 0
-139 -92 188 0
139 -189 0
92 -189 0
93 -189 0
-139 -92 -93 189 0
116 -190 0
93 -190 0
-116 -93 190 0
139 -191 0
92 -191 0
93 -191 0
94 -191 0
-139 -92 -93 -94 191 0
116 -192 0
93 -192 0
94 -192 0
-116 -93 -94 192 0
117 -193 0
94 -193 0
-117 -94 193 0
139 -194 0
92 -194 0
93 -194 0
94 -194 0
95 -194 0
-139 -92 -93 -94 -95 194 0
116 -195 0
93 -195 0
94 -195 0
95 -195 0
-116 -93 -94 -95 195 0
117 -196 0
94 -196 0
95 -196 0
-117 -94 -95 196 0
118 -197 0
95 -197 0
-118 -95 197 0
-116 140 0
-188 140 0
116 188 -140 0
-117 141 0
-189 141 0
-190 141 0
117 189 190 -141 0
-118 142 0
-191 142 0
-192 142 0
-193 142 0
118 191 192 193 -142 0
-119 143 0
-194 143 0
-195 143 0
-196 143 0
-197 143 0
119 194 195 196 197 -143 0
143 -198 0
96 -198 0
-143 -96 198 0
143 -199 0
96 -199 0
97 -199 0
-143 -96 -97 199 0
120 -200 0
97 -200 0
-120 -97 200 0
143 -201 0
96 -201 0
97 -201 0
98 -201 0
-143 -96 -97 -98 201 0
120 -202 0
97 -202 0
98 -202 0
-120 -97 -98 202 0
121 -203 0
98 -203 0
-121 -98 203 0
143 -204 0
96 -204 0
97 -204 0
98 -204 0
99 -204 0
-143 -96 -97 -98 -99 204 0
120 -205 0
97 -205 0
98 -205 0
99 -205 0
-120 -97 -98 -99 205 0
121 -206 0
98 -206 0
99 -206 0
-121 -98 -99 206 0
122 -207 0
99 -207 0
-122 -99 207 0
-120 144 0
-198 144 0
120 198 -144 0
-121 145 0
-199 145 0
-200 145 0
121 199 200 -145 0
-122 146 0
-201 146 0
-202 146 0
-203 146 0
122 201 202 203 -146 0
-123 147 0
-204 147 0
-205 147 0
-206 147 0
-207 147 0
123 204 205 206 207 -147 0
76 74 -49 0
-76 74 49 0
76 -74 49 0
-76 -74 -49 0
77 124 -50 0
-77 124 50 0
77 -124 50 0
-77 -124 -50 0
78 125 -51 0
-78 125 51 0
78 -125 51 0
-78 -125 -51 0
79 126 -52 0
-79 126 52 0
79 -126 52 0
-79 -126 -52 0
80 127 -53 0
-80 127 53 0
80 -127 53 0
-80 -127 -53 0
81 128 -54 0
-81 128 54 0
81 -128 54 0
-81 -128 -54 0
82 129 -55 0
-82 129 55 0
82 -129 55 0
-82 -129 -55 0
83 130 -56 0
-83 130 56 0
83 -130 56 0
-83 -130 -56 0
84 131 -57 0
-84 131 57 0
84 -131 57 0
-84 -131 -57 0
85 132 -58 0
-85 132 58 0
85 -132 58 0
-85 -132 -58 0
86 133 -59 0
-86 133 59 0
86 -133 59 0
-86 -133 -59 0
87 134 -60 0
-87 134 60 0
87 -134 60 0
-87 -134 -60 0
88 135 -61 0
-88 135 61 0
88 -135 61 0
-88 -135 -61 0
89 136 -62 0
-89 136 62 0
89 -136 62 0
-89 -136 -62 0
90 137 -63 0
-90 137 63 0
90 -137 63 0
-90 -137 -63 0
91 138 -64 0
-91 138 64 0
91 -138 64 0
-91 -138 -64 0
92 139 -65 0
-92 139 65 0
92 -139 65 0
-92 -139 -65 0
93 140 -66 0
-93 140 66 0
93 -140 66 0
-93 -140 -66 0
94 141 -67 0
-94 141 67 0
94 -141 67 0
-94 -141 -67 0
95 142 -68 0
-95 142 68 0
95 -142 68 0
-95 -142 -68 0
96 143 -69 0
-96 143 69 0
96 -143 69 0
-96 -143 -69 0
97 144 -70 0
-97 144 70 0
97 -144 70 0
-97 -144 -70 0
98 145 -71 0
-98 145 71 0
98 -145 71 0
-98 -145 -71 0
99 146 -72 0
-99 146 72 0
99 -146 72 0
-99 -146 -72 0
147 -73 0
-147 73 0
